sing20200502.12
TTAA 52121 48698
99005 29230 04505 00070 28635 07507 92761 24025 29504
85497 19218 28514 70145 10848 29028 50588 03917 23007
40761 12756 16505 30974 28135 03508 25102 38133 03013
20252 50950 09022 15432 67356 08529 10666 79759 09528
88113 80945 09544
77999=
TTCC 52123 48698
70867 76564 06021 50067 67773 06521 30379 60778 04512
88840 83356 25509
77999=
TTDD 5212/ 48698
11840 83356 22828 83356 33771 83157 44670 71570 55609
67973 66561 70370 77528 66774 88497 67973 99296 60778
11288 61977 22260 56380
21212 11950 09513 22936 14006 33906 20010 44853 23512
55815 35504 66771 03510 77753 02021 88740 03025 99690
07522 11674 06524 22657 08012 33631 06507 44585 18511
55565 17013 66531 07014 77516 06021 88494 07022 99464
11516 11426 07520 22388 06528 33340 11533 44315 10021
55301 04511 66276 04011 77260 08520=
